NAME          DCAP_2_4_3_500_SS111
ROWS
 N  OBJ
 L  CON1
 L  CON2
 L  CON3
 L  CON4
 L  CON5
 L  CON6
 L  CON7
 L  CON8
 L  CON9
 L  CON10
 L  CON11
 L  CON12
 E  CON13
 E  CON14
 E  CON15
 E  CON16
 E  CON17
 E  CON18
 E  CON19
 E  CON20
 E  CON21
 E  CON22
 E  CON23
 E  CON24
COLUMNS
    x[1,1]    OBJ       6.180167      CON1      1.000000    
    x[1,1]    CON7      -1.000000     CON8      -1.000000   
    x[1,1]    CON9      -1.000000   
    x[1,2]    OBJ       6.563535      CON2      1.000000    
    x[1,2]    CON8      -1.000000     CON9      -1.000000   
    x[1,3]    OBJ       7.443064      CON3      1.000000    
    x[1,3]    CON9      -1.000000   
    x[2,1]    OBJ       6.732585      CON4      1.000000    
    x[2,1]    CON10     -1.000000     CON11     -1.000000   
    x[2,1]    CON12     -1.000000   
    x[2,2]    OBJ       5.039546      CON5      1.000000    
    x[2,2]    CON11     -1.000000     CON12     -1.000000   
    x[2,3]    OBJ       6.054841      CON6      1.000000    
    x[2,3]    CON12     -1.000000   
    MARKER    'MARKER'                'INTORG'
    u[1,1]    OBJ       48.076654     CON1      -1.000000   
    u[1,2]    OBJ       20.066487     CON2      -1.000000   
    u[1,3]    OBJ       32.230043     CON3      -1.000000   
    u[2,1]    OBJ       49.996186     CON4      -1.000000   
    u[2,2]    OBJ       49.466655     CON5      -1.000000   
    u[2,3]    OBJ       27.484319     CON6      -1.000000   
    y[1,1,1]  OBJ       6.470844      CON7      1.071319    
    y[1,1,1]  CON13     1.000000    
    y[1,1,2]  OBJ       9.128318      CON8      0.552184    
    y[1,1,2]  CON14     1.000000    
    y[1,1,3]  OBJ       5.083424      CON9      0.900816    
    y[1,1,3]  CON15     1.000000    
    y[1,2,1]  OBJ       9.545511      CON7      1.280289    
    y[1,2,1]  CON16     1.000000    
    y[1,2,2]  OBJ       9.693972      CON8      1.333882    
    y[1,2,2]  CON17     1.000000    
    y[1,2,3]  OBJ       7.044723      CON9      0.502830    
    y[1,2,3]  CON18     1.000000    
    y[1,3,1]  OBJ       7.238471      CON7      1.413463    
    y[1,3,1]  CON19     1.000000    
    y[1,3,2]  OBJ       9.784162      CON8      0.702091    
    y[1,3,2]  CON20     1.000000    
    y[1,3,3]  OBJ       8.708222      CON9      1.366206    
    y[1,3,3]  CON21     1.000000    
    y[1,4,1]  OBJ       5.849473      CON7      1.177957    
    y[1,4,1]  CON22     1.000000    
    y[1,4,2]  OBJ       6.682259      CON8      1.417072    
    y[1,4,2]  CON23     1.000000    
    y[1,4,3]  OBJ       6.124395      CON9      1.227220    
    y[1,4,3]  CON24     1.000000    
    y[2,1,1]  OBJ       9.322317      CON10     1.071319    
    y[2,1,1]  CON13     1.000000    
    y[2,1,2]  OBJ       7.727830      CON11     0.552184    
    y[2,1,2]  CON14     1.000000    
    y[2,1,3]  OBJ       5.732267      CON12     0.900816    
    y[2,1,3]  CON15     1.000000    
    y[2,2,1]  OBJ       7.147157      CON10     1.280289    
    y[2,2,1]  CON16     1.000000    
    y[2,2,2]  OBJ       7.741844      CON11     1.333882    
    y[2,2,2]  CON17     1.000000    
    y[2,2,3]  OBJ       8.315262      CON12     0.502830    
    y[2,2,3]  CON18     1.000000    
    y[2,3,1]  OBJ       9.368696      CON10     1.413463    
    y[2,3,1]  CON19     1.000000    
    y[2,3,2]  OBJ       6.506852      CON11     0.702091    
    y[2,3,2]  CON20     1.000000    
    y[2,3,3]  OBJ       6.913402      CON12     1.366206    
    y[2,3,3]  CON21     1.000000    
    y[2,4,1]  OBJ       6.434321      CON10     1.177957    
    y[2,4,1]  CON22     1.000000    
    y[2,4,2]  OBJ       8.911021      CON11     1.417072    
    y[2,4,2]  CON23     1.000000    
    y[2,4,3]  OBJ       8.937871      CON12     1.227220    
    y[2,4,3]  CON24     1.000000    
    z[1,1]    OBJ       507.193886    CON13     1.000000    
    z[1,2]    OBJ       884.754686    CON14     1.000000    
    z[1,3]    OBJ       691.783146    CON15     1.000000    
    z[2,1]    OBJ       743.305070    CON16     1.000000    
    z[2,2]    OBJ       686.787937    CON17     1.000000    
    z[2,3]    OBJ       669.340253    CON18     1.000000    
    z[3,1]    OBJ       614.148484    CON19     1.000000    
    z[3,2]    OBJ       543.287899    CON20     1.000000    
    z[3,3]    OBJ       739.193902    CON21     1.000000    
    z[4,1]    OBJ       913.082540    CON22     1.000000    
    z[4,2]    OBJ       826.334482    CON23     1.000000    
    z[4,3]    OBJ       564.684253    CON24     1.000000    
    MARKER    'MARKER'                 'INTEND'
RHS
    RHS       CON1      -0.000000     CON2      -0.000000   
    RHS       CON3      -0.000000     CON4      -0.000000   
    RHS       CON5      -0.000000     CON6      -0.000000   
    RHS       CON7      -0.000000     CON8      -0.000000   
    RHS       CON9      -0.000000     CON10     -0.000000   
    RHS       CON11     -0.000000     CON12     -0.000000   
    RHS       CON13     1.000000      CON14     1.000000    
    RHS       CON15     1.000000      CON16     1.000000    
    RHS       CON17     1.000000      CON18     1.000000    
    RHS       CON19     1.000000      CON20     1.000000    
    RHS       CON21     1.000000      CON22     1.000000    
    RHS       CON23     1.000000      CON24     1.000000    
BOUNDS
 BV BOUND     u[1,1]  
 BV BOUND     u[1,2]  
 BV BOUND     u[1,3]  
 BV BOUND     u[2,1]  
 BV BOUND     u[2,2]  
 BV BOUND     u[2,3]  
 BV BOUND     y[1,1,1]
 BV BOUND     y[1,1,2]
 BV BOUND     y[1,1,3]
 BV BOUND     y[1,2,1]
 BV BOUND     y[1,2,2]
 BV BOUND     y[1,2,3]
 BV BOUND     y[1,3,1]
 BV BOUND     y[1,3,2]
 BV BOUND     y[1,3,3]
 BV BOUND     y[1,4,1]
 BV BOUND     y[1,4,2]
 BV BOUND     y[1,4,3]
 BV BOUND     y[2,1,1]
 BV BOUND     y[2,1,2]
 BV BOUND     y[2,1,3]
 BV BOUND     y[2,2,1]
 BV BOUND     y[2,2,2]
 BV BOUND     y[2,2,3]
 BV BOUND     y[2,3,1]
 BV BOUND     y[2,3,2]
 BV BOUND     y[2,3,3]
 BV BOUND     y[2,4,1]
 BV BOUND     y[2,4,2]
 BV BOUND     y[2,4,3]
 BV BOUND     z[1,1]  
 BV BOUND     z[1,2]  
 BV BOUND     z[1,3]  
 BV BOUND     z[2,1]  
 BV BOUND     z[2,2]  
 BV BOUND     z[2,3]  
 BV BOUND     z[3,1]  
 BV BOUND     z[3,2]  
 BV BOUND     z[3,3]  
 BV BOUND     z[4,1]  
 BV BOUND     z[4,2]  
 BV BOUND     z[4,3]  
ENDATA
